n = 11;
k = 2;
maxsize = 11;
nML = 2;
nCL = 2;
deg = [2, 3, 3, 2, 1, 2, 3, 3, 2, 3, 2];
ML = array2d(1..2, 1..2, [4, 11, 7, 10]);
CL = array2d(1..2, 1..2, [5, 1, 8, 6]);
A = array2d(1..11, 1..11, [ 0, 0, 1, 0, 0, 0, 0, 0, 1, 0, 0, 0, 0, 0, 0, 0, 1, 0, 1, 0, 1, 0, 1, 0, 0, 0, 0, 0, 1, 1, 0, 0, 0, 0, 0, 0, 0, 0, 0, 1, 0, 0, 1, 0, 0, 0, 0, 0, 0, 0, 0, 0, 0, 0, 1, 0, 1, 0, 0, 0, 0, 1, 0, 0, 0, 0, 0, 0, 1, 1, 0, 1, 0, 0, 0, 0, 0, 0, 1, 1, 0, 0, 0, 0, 0, 0, 1, 0, 1, 0, 0, 0, 0, 0, 0, 0, 0, 0, 1, 0, 1, 0, 1, 0, 0, 0, 1, 0, 0, 0, 0, 0, 0, 0, 1, 0, 0, 0, 1, 0, 0 ]);
W = array2d(1..11, 1..11, [ -10, 9, -6, -2, -1, 5, -9, -4, 2, -8, 2, -8, -4, -6, 8, 9, 0, 9, -2, -8, 9, 9, -9, 7, 5, 0, -1, 8, 9, -10, 0, 1, 10, 2, 0, 1, -10, 3, 4, -10, -5, 0, 8, 2, 7, -4, -10, 10, -9, 6, 1, -5, -7, 4, -8, 3, 2, -6, 0, -10, -6, 8, 0, 1, 2, 7, 1, -6, 4, -6, 8, 4, 6, 1, 4, -2, -8, 10, -1, -2, -9, -9, -10, 1, 4, 1, -5, 4, 6, 8, -1, -7, 1, -3, -9, -2, 1, 5, -4, 10, -7, -1, -3, -9, 10, -5, -3, 2, 6, 5, -10, 6, 10, 9, -8, 2, -8, 8, 9, 0, -1 ]);